
-11.6
-11.4
-11.2
-11.1
-11.0
-10.9
-10.9
-10.7
-10.5
-10.5
-10.4
-10.4
-10.4
-10.3
-10.2
-10.1
-9.9
-9.8
-9.8
-9.8
-9.8
-9.8
-9.7
-9.7
-9.7
-9.7
-9.7
-9.7
-9.7
-9.7
-9.5
-9.5
-9.5
-9.5
-9.5
-9.5
-9.5
-11.4
-11.25
-10.95
-10.7
-10.7
-10.7
-10.6
-10.45
-10.35
-10.15
-9.95
-9.95
-9.95
-9.9
-9.9
-9.75
-9.7
-9.65
-9.65
-9.5
-9.5
-9.5
-9.5
-9.45
-9.45
-9.45
-9.45
-9.4
-9.4
-9.4
-9.4
-9.4
-9.4
-9.4
-9.4
-9.35
-9.35
-9.35
-9.35
-9.35
-11.75
-11.35
-10.95
-10.8
-10.75
-10.75
-10.65
-10.4
-10.35
-10.3
-10.25
-10.25
-10.15
-10.15
-10.1
-10.1
-10.1
-10.05
-10.05
-10.0
-10.0
-10.0
-10.0
-10.0
-10.0
-10.0
-10.0